\ENCODING=ISO-8859-1
\Problem name: Configuration1

Maximize
 obj: M(1)(1) + M(1)(2) + M(1)(3) + M(1)(4) + M(1)(5) + M(1)(6) + M(1)(7)
      + M(2)(1) + M(2)(2) + M(2)(3) + M(2)(4) + M(2)(5) + M(2)(6) + M(2)(7)
      + M(3)(1) + M(3)(2) + M(3)(3) + M(3)(4) + M(3)(5) + M(3)(6) + M(3)(7)
      + M(4)(1) + M(4)(2) + M(4)(3) + M(4)(4) + M(4)(5) + M(4)(6) + M(4)(7)
      + M(5)(1) + M(5)(2) + M(5)(3) + M(5)(4) + M(5)(5) + M(5)(6) + M(5)(7)
      + M(6)(1) + M(6)(2) + M(6)(3) + M(6)(4) + M(6)(5) + M(6)(6) + M(6)(7)
      + M(7)(1) + M(7)(2) + M(7)(3) + M(7)(4) + M(7)(5) + M(7)(6) + M(7)(7)
Subject To
 c1:         M(1)(1) - M(2)(1) <= 11
 c2:         M(1)(2) - M(2)(2) <= 11
 c3:         M(1)(3) - M(2)(3) <= 11
 c4:         M(1)(4) - M(2)(4) <= 10
 c5:         M(1)(5) - M(2)(5) <= 11
 c6:         M(1)(6) - M(2)(6) <= 10
 c7:         M(1)(7) - M(2)(7) <= 10
 c8:         M(2)(1) - M(3)(1) <= 10
 c9:         M(2)(2) - M(3)(2) <= 11
 c10:        M(2)(3) - M(3)(3) <= 11
 c11:        M(2)(4) - M(3)(4) <= 9
 c12:        M(2)(5) - M(3)(5) <= 9
 c13:        M(2)(6) - M(3)(6) <= 9
 c14:        M(2)(7) - M(3)(7) <= 10
 c15:        M(3)(1) - M(4)(1) <= 11
 c16:        M(3)(2) - M(4)(2) <= 9
 c17:        M(3)(3) - M(4)(3) <= 10
 c18:        M(3)(4) - M(4)(4) <= 10
 c19:        M(3)(5) - M(4)(5) <= 9
 c20:        M(3)(6) - M(4)(6) <= 9
 c21:        M(3)(7) - M(4)(7) <= 9
 c22:        M(4)(1) - M(5)(1) <= 10
 c23:        M(4)(2) - M(5)(2) <= 11
 c24:        M(4)(3) - M(5)(3) <= 10
 c25:        M(4)(4) - M(5)(4) <= 9
 c26:        M(4)(5) - M(5)(5) <= 10
 c27:        M(4)(6) - M(5)(6) <= 10
 c28:        M(4)(7) - M(5)(7) <= 10
 c29:        M(5)(1) - M(6)(1) <= 10
 c30:        M(5)(2) - M(6)(2) <= 9
 c31:        M(5)(3) - M(6)(3) <= 11
 c32:        M(5)(4) - M(6)(4) <= 10
 c33:        M(5)(5) - M(6)(5) <= 9
 c34:        M(5)(6) - M(6)(6) <= 9
 c35:        M(5)(7) - M(6)(7) <= 11
 c36:        M(6)(1) - M(7)(1) <= 9
 c37:        M(6)(2) - M(7)(2) <= 10
 c38:        M(6)(3) - M(7)(3) <= 10
 c39:        M(6)(4) - M(7)(4) <= 9
 c40:        M(6)(5) - M(7)(5) <= 10
 c41:        M(6)(6) - M(7)(6) <= 10
 c42:        M(6)(7) - M(7)(7) <= 10
 c43:        - M(1)(1) + M(2)(1) <= 6
 c44:        - M(1)(2) + M(2)(2) <= 5
 c45:        - M(1)(3) + M(2)(3) <= 5
 c46:        - M(1)(4) + M(2)(4) <= 4
 c47:        - M(1)(5) + M(2)(5) <= 6
 c48:        - M(1)(6) + M(2)(6) <= 5
 c49:        - M(1)(7) + M(2)(7) <= 4
 c50:        - M(2)(1) + M(3)(1) <= 4
 c51:        - M(2)(2) + M(3)(2) <= 6
 c52:        - M(2)(3) + M(3)(3) <= 5
 c53:        - M(2)(4) + M(3)(4) <= 6
 c54:        - M(2)(5) + M(3)(5) <= 6
 c55:        - M(2)(6) + M(3)(6) <= 6
 c56:        - M(2)(7) + M(3)(7) <= 5
 c57:        - M(3)(1) + M(4)(1) <= 5
 c58:        - M(3)(2) + M(4)(2) <= 6
 c59:        - M(3)(3) + M(4)(3) <= 6
 c60:        - M(3)(4) + M(4)(4) <= 5
 c61:        - M(3)(5) + M(4)(5) <= 4
 c62:        - M(3)(6) + M(4)(6) <= 6
 c63:        - M(3)(7) + M(4)(7) <= 4
 c64:        - M(4)(1) + M(5)(1) <= 5
 c65:        - M(4)(2) + M(5)(2) <= 4
 c66:        - M(4)(3) + M(5)(3) <= 5
 c67:        - M(4)(4) + M(5)(4) <= 4
 c68:        - M(4)(5) + M(5)(5) <= 5
 c69:        - M(4)(6) + M(5)(6) <= 6
 c70:        - M(4)(7) + M(5)(7) <= 5
 c71:        - M(5)(1) + M(6)(1) <= 4
 c72:        - M(5)(2) + M(6)(2) <= 6
 c73:        - M(5)(3) + M(6)(3) <= 4
 c74:        - M(5)(4) + M(6)(4) <= 4
 c75:        - M(5)(5) + M(6)(5) <= 4
 c76:        - M(5)(6) + M(6)(6) <= 4
 c77:        - M(5)(7) + M(6)(7) <= 5
 c78:        - M(6)(1) + M(7)(1) <= 6
 c79:        - M(6)(2) + M(7)(2) <= 4
 c80:        - M(6)(3) + M(7)(3) <= 4
 c81:        - M(6)(4) + M(7)(4) <= 5
 c82:        - M(6)(5) + M(7)(5) <= 4
 c83:        - M(6)(6) + M(7)(6) <= 5
 c84:        - M(6)(7) + M(7)(7) <= 5
 c85:        M(1)(1) - M(1)(2) <= 2
 c86:        M(1)(2) - M(1)(3) <= 3
 c87:        M(1)(3) - M(1)(4) <= 2
 c88:        M(1)(4) - M(1)(5) <= 2
 c89:        M(1)(5) - M(1)(6) <= 4
 c90:        M(1)(6) - M(1)(7) <= 2
 c91:        M(2)(1) - M(2)(2) <= 2
 c92:        M(2)(2) - M(2)(3) <= 4
 c93:        M(2)(3) - M(2)(4) <= 3
 c94:        M(2)(4) - M(2)(5) <= 2
 c95:        M(2)(5) - M(2)(6) <= 4
 c96:        M(2)(6) - M(2)(7) <= 4
 c97:        M(3)(1) - M(3)(2) <= 4
 c98:        M(3)(2) - M(3)(3) <= 3
 c99:        M(3)(3) - M(3)(4) <= 3
 c100:       M(3)(4) - M(3)(5) <= 2
 c101:       M(3)(5) - M(3)(6) <= 2
 c102:       M(3)(6) - M(3)(7) <= 3
 c103:       M(4)(1) - M(4)(2) <= 3
 c104:       M(4)(2) - M(4)(3) <= 2
 c105:       M(4)(3) - M(4)(4) <= 3
 c106:       M(4)(4) - M(4)(5) <= 4
 c107:       M(4)(5) - M(4)(6) <= 2
 c108:       M(4)(6) - M(4)(7) <= 3
 c109:       M(5)(1) - M(5)(2) <= 3
 c110:       M(5)(2) - M(5)(3) <= 3
 c111:       M(5)(3) - M(5)(4) <= 3
 c112:       M(5)(4) - M(5)(5) <= 4
 c113:       M(5)(5) - M(5)(6) <= 4
 c114:       M(5)(6) - M(5)(7) <= 3
 c115:       M(6)(1) - M(6)(2) <= 2
 c116:       M(6)(2) - M(6)(3) <= 4
 c117:       M(6)(3) - M(6)(4) <= 2
 c118:       M(6)(4) - M(6)(5) <= 2
 c119:       M(6)(5) - M(6)(6) <= 3
 c120:       M(6)(6) - M(6)(7) <= 3
 c121:       M(7)(1) - M(7)(2) <= 2
 c122:       M(7)(2) - M(7)(3) <= 3
 c123:       M(7)(3) - M(7)(4) <= 3
 c124:       M(7)(4) - M(7)(5) <= 2
 c125:       M(7)(5) - M(7)(6) <= 2
 c126:       M(7)(6) - M(7)(7) <= 2
 c127:       - M(1)(1) + M(1)(2) <= 3
 c128:       - M(1)(2) + M(1)(3) <= 4
 c129:       - M(1)(3) + M(1)(4) <= 3
 c130:       - M(1)(4) + M(1)(5) <= 4
 c131:       - M(1)(5) + M(1)(6) <= 5
 c132:       - M(1)(6) + M(1)(7) <= 4
 c133:       - M(2)(1) + M(2)(2) <= 4
 c134:       - M(2)(2) + M(2)(3) <= 4
 c135:       - M(2)(3) + M(2)(4) <= 5
 c136:       - M(2)(4) + M(2)(5) <= 4
 c137:       - M(2)(5) + M(2)(6) <= 3
 c138:       - M(2)(6) + M(2)(7) <= 3
 c139:       - M(3)(1) + M(3)(2) <= 3
 c140:       - M(3)(2) + M(3)(3) <= 5
 c141:       - M(3)(3) + M(3)(4) <= 4
 c142:       - M(3)(4) + M(3)(5) <= 3
 c143:       - M(3)(5) + M(3)(6) <= 3
 c144:       - M(3)(6) + M(3)(7) <= 5
 c145:       - M(4)(1) + M(4)(2) <= 4
 c146:       - M(4)(2) + M(4)(3) <= 4
 c147:       - M(4)(3) + M(4)(4) <= 5
 c148:       - M(4)(4) + M(4)(5) <= 3
 c149:       - M(4)(5) + M(4)(6) <= 3
 c150:       - M(4)(6) + M(4)(7) <= 3
 c151:       - M(5)(1) + M(5)(2) <= 4
 c152:       - M(5)(2) + M(5)(3) <= 4
 c153:       - M(5)(3) + M(5)(4) <= 4
 c154:       - M(5)(4) + M(5)(5) <= 5
 c155:       - M(5)(5) + M(5)(6) <= 5
 c156:       - M(5)(6) + M(5)(7) <= 4
 c157:       - M(6)(1) + M(6)(2) <= 5
 c158:       - M(6)(2) + M(6)(3) <= 3
 c159:       - M(6)(3) + M(6)(4) <= 4
 c160:       - M(6)(4) + M(6)(5) <= 3
 c161:       - M(6)(5) + M(6)(6) <= 4
 c162:       - M(6)(6) + M(6)(7) <= 5
 c163:       - M(7)(1) + M(7)(2) <= 5
 c164:       - M(7)(2) + M(7)(3) <= 5
 c165:       - M(7)(3) + M(7)(4) <= 4
 c166:       - M(7)(4) + M(7)(5) <= 4
 c167:       - M(7)(5) + M(7)(6) <= 4
 c168:       - M(7)(6) + M(7)(7) <= 3
 Restricao5: M(1)(1)  = 0
End
